95 92 98 85 61 16 86 38 44 14 42 15 57 2 40 26 12 76 28 53 58 87 97 59 93 99 96 94 6 
27 69 70 30 90 63 64 49 36 47 46 45 17 84 5 60 89 
52 31 88 7 18 83 8 82 48 19 11 62 10 32 66 20 51 50 1 
21 73 72 75 22 41 23 67 39 29 78 34 35 65 71 9 81 33 79 3 77 68 80 24 54 55 25 4 56 74 43 91 100 37 13 
